nNurses = 170;
nHours = 27;
minHours = 7;
maxHours = 17;
maxConsec = 13;
maxPresence = 11;
demand = [39, 35, 30, 33, 31, 30, 28, 25, 24, 21, 21, 16, 15, 14, 16, 19, 15, 20, 15, 13, 15, 18, 19, 14, 11, 15, 14];
